certificates/rado_a12_c196_N33.cnf
c Rad2 upper bound instance: x1 + 12*x2 - x3 = 196, interval [1,33]
p cnf 33 180
1 9 17 0
-1 -9 -17 0
1 18 21 0
-1 -18 -21 0
1 19 33 0
-1 -19 -33 0
2 10 17 0
-2 -10 -17 0
2 18 22 0
-2 -18 -22 0
3 11 17 0
-3 -11 -17 0
3 18 23 0
-3 -18 -23 0
4 12 17 0
-4 -12 -17 0
4 18 24 0
-4 -18 -24 0
1 5 16 0
-1 -5 -16 0
5 13 17 0
-5 -13 -17 0
5 18 25 0
-5 -18 -25 0
2 6 16 0
-2 -6 -16 0
6 14 17 0
-6 -14 -17 0
6 18 26 0
-6 -18 -26 0
3 7 16 0
-3 -7 -16 0
7 15 17 0
-7 -15 -17 0
7 18 27 0
-7 -18 -27 0
4 8 16 0
-4 -8 -16 0
8 16 17 0
-8 -16 -17 0
8 18 28 0
-8 -18 -28 0
5 9 16 0
-5 -9 -16 0
9 17 0
-9 -17 0
9 18 29 0
-9 -18 -29 0
6 10 16 0
-6 -10 -16 0
10 17 18 0
-10 -17 -18 0
10 18 30 0
-10 -18 -30 0
7 11 16 0
-7 -11 -16 0
11 17 19 0
-11 -17 -19 0
11 18 31 0
-11 -18 -31 0
8 12 16 0
-8 -12 -16 0
12 17 20 0
-12 -17 -20 0
12 18 32 0
-12 -18 -32 0
9 13 16 0
-9 -13 -16 0
13 17 21 0
-13 -17 -21 0
13 18 33 0
-13 -18 -33 0
10 14 16 0
-10 -14 -16 0
14 17 22 0
-14 -17 -22 0
11 15 16 0
-11 -15 -16 0
15 17 23 0
-15 -17 -23 0
12 16 0
-12 -16 0
16 17 24 0
-16 -17 -24 0
1 15 17 0
-1 -15 -17 0
13 16 17 0
-13 -16 -17 0
17 25 0
-17 -25 0
2 15 18 0
-2 -15 -18 0
14 16 18 0
-14 -16 -18 0
17 18 26 0
-17 -18 -26 0
3 15 19 0
-3 -15 -19 0
15 16 19 0
-15 -16 -19 0
17 19 27 0
-17 -19 -27 0
4 15 20 0
-4 -15 -20 0
16 20 0
-16 -20 0
17 20 28 0
-17 -20 -28 0
5 15 21 0
-5 -15 -21 0
16 17 21 0
-16 -17 -21 0
17 21 29 0
-17 -21 -29 0
6 15 22 0
-6 -15 -22 0
16 18 22 0
-16 -18 -22 0
17 22 30 0
-17 -22 -30 0
7 15 23 0
-7 -15 -23 0
16 19 23 0
-16 -19 -23 0
17 23 31 0
-17 -23 -31 0
8 15 24 0
-8 -15 -24 0
16 20 24 0
-16 -20 -24 0
17 24 32 0
-17 -24 -32 0
9 15 25 0
-9 -15 -25 0
16 21 25 0
-16 -21 -25 0
17 25 33 0
-17 -25 -33 0
10 15 26 0
-10 -15 -26 0
16 22 26 0
-16 -22 -26 0
11 15 27 0
-11 -15 -27 0
16 23 27 0
-16 -23 -27 0
12 15 28 0
-12 -15 -28 0
16 24 28 0
-16 -24 -28 0
1 14 29 0
-1 -14 -29 0
13 15 29 0
-13 -15 -29 0
16 25 29 0
-16 -25 -29 0
2 14 30 0
-2 -14 -30 0
14 15 30 0
-14 -15 -30 0
16 26 30 0
-16 -26 -30 0
3 14 31 0
-3 -14 -31 0
15 31 0
-15 -31 0
16 27 31 0
-16 -27 -31 0
4 14 32 0
-4 -14 -32 0
15 16 32 0
-15 -16 -32 0
16 28 32 0
-16 -28 -32 0
5 14 33 0
-5 -14 -33 0
15 17 33 0
-15 -17 -33 0
16 29 33 0
-16 -29 -33 0
