certificates/rado_a12_c196_N33.drat
16 15 -33 0
15 -32 -33 0
-15 -33 0
d -15 -17 -33 0
-33 0
15 0
-31 0
-19 -17 0
d -19 -27 -17 0
-17 0
9 0
25 0
23 0
0
